NAME : graph18
COMMENT : H Algorithm Solution by Oscar Riveros [http://twitter.com/maxtuno]
TYPE : TOUR
DIMENSION : 166
TOUR_SECTION
45
26
122
127
110
115
1
6
108
165
129
75
4
60
144
28
133
66
98
59
112
40
116
43
55
83
100
130
142
146
61
41
158
82
50
33
128
161
39
89
135
78
57
113
124
67
94
156
104
152
47
77
51
87
62
155
164
63
35
73
154
117
8
88
65
48
95
17
105
46
149
5
134
70
27
72
44
54
157
126
64
25
84
102
16
109
14
93
137
37
97
38
30
145
147
34
153
31
151
29
143
132
136
138
9
125
111
42
101
58
81
148
36
21
53
56
19
90
86
92
69
68
96
120
107
141
18
7
139
150
140
49
3
85
103
163
11
131
20
23
74
159
22
162
10
119
114
24
12
166
118
71
160
106
121
76
79
123
52
91
2
32
80
15
99
13
-1
EOF
